c A SAT instance generated from a 3-CNF formula that had 20 clauses and 20 variables
p cnf 20 20
-9 -4 1 0
-1 18 -8 0
10 12 -19 0
10 -12 14 0
-4 -1 -17 0
4 -16 -9 0
2 20 -10 0
17 -4 9 0
10 8 -6 0
-15 -13 2 0
-12 9 -1 0
14 -4 -3 0
-20 -15 2 0
-13 -8 -14 0
-3 19 7 0
-3 4 20 0
17 -19 -2 0
16 -6 8 0
17 8 -6 0
20 3 2 0
